(declare-fun x () String)

(assert (str.in.re x (re.++  (str.to.re "\x4e01") (re.++ (re.opt  (str.to.re "\x4e02") ) (re.++ (re.opt  (str.to.re "\x4e03") ) (re.++ (re.opt  (str.to.re "\x4e04") ) (re.++ (re.opt  (str.to.re "\x4e05") ) (re.++ (re.opt  (str.to.re "\x4e06") ) (re.++ (re.opt  (str.to.re "\x4e07") ) (re.++ (re.opt  (str.to.re "\x4e08") ) (re.++ (re.*  (str.to.re "\x4e09") ) (re.++ (re.opt  (str.to.re "\x4e0a") ) (re.++ (re.opt  (str.to.re "\x4e0b") ) (re.++ (re.*  (str.to.re "\x4e0c") ) (re.++ (re.opt  (str.to.re "\x4e0d") ) (re.++ (re.opt  (str.to.re "\x4e0e") ) (re.++ (re.opt  (str.to.re "\x4e0f") ) (re.++ (re.opt  (str.to.re "\x4e10") ) (re.++ (re.opt  (str.to.re "\x4e11") ) (re.++ (re.opt  (str.to.re "\x4e12") ) (re.++ (re.opt  (str.to.re "\x4e13") ) (re.++ (re.opt  (str.to.re "\x4e14") ) (re.++ (re.opt  (str.to.re "\x4e15") ) (re.++ (re.*  (str.to.re "\x4e16") ) (re.++ (re.opt  (str.to.re "\x4e17") ) (re.++ (re.opt  (str.to.re "\x4e18") ) (re.++ (re.opt  (str.to.re "\x4e19") ) (re.++ (re.opt  (str.to.re "\x4e1a") ) (re.++ (re.opt  (str.to.re "\x4e1b") ) (re.++ (re.opt  (str.to.re "\x4e1c") ) (re.++ (re.opt  (str.to.re "\x4e1d") ) (re.++ (re.opt  (str.to.re "\x4e1e") ) (re.++ (re.opt  (str.to.re "\x4e1f") ) (re.++ (re.opt  (str.to.re "\x4e20") ) (re.++ (re.opt  (str.to.re "\x4e21") ) (re.++ (re.opt  (str.to.re "\x4e22") ) (re.++ (re.opt  (str.to.re "\x4e23") ) (re.++ (re.opt  (str.to.re "\x4e24") ) (re.++ (re.opt  (str.to.re "\x4e25") ) (re.++ (re.opt  (str.to.re "\x4e26") ) (re.++ (re.opt  (str.to.re "\x4e27") ) (re.++ (re.opt  (str.to.re "\x4e28") ) (re.++ (re.opt  (str.to.re "\x4e29") ) (re.++ (re.opt  (str.to.re "\x4e2a") ) (re.++ (re.opt  (str.to.re "\x4e2b") ) (re.++ (re.opt  (str.to.re "\x4e2c") ) (re.++ (re.opt  (str.to.re "\x4e2d") ) (re.++ (re.opt  (str.to.re "\x4e2e") ) (re.++ (re.*  (str.to.re "\x4e2f") ) (re.++ (re.opt  (str.to.re "\x4e30") ) (re.++ (re.*  (str.to.re "\x4e31") ) (re.++ (re.opt  (str.to.re "\x4e32") ) (re.++ (re.opt  (str.to.re "\x4e33") ) (re.++ (re.*  (str.to.re "\x4e34") ) (re.++ (re.opt  (str.to.re "\x4e35") ) (re.++ (re.opt  (str.to.re "\x4e36") ) (re.++ (re.opt  (str.to.re "\x4e37") ) (re.++ (re.opt  (str.to.re "\x4e38") ) (re.++ (re.opt  (str.to.re "\x4e39") ) (re.++ (re.opt  (str.to.re "\x4e3a") ) (re.++ (re.opt  (str.to.re "\x4e3b") ) (re.++ (re.opt  (str.to.re "\x4e3c") ) (re.++ (re.opt  (str.to.re "\x4e3d") ) (re.++ (re.opt  (str.to.re "\x4e3e") ) (re.++ (re.opt  (str.to.re "\x4e3f") ) (re.++ (re.opt  (str.to.re "\x4e40") ) (re.++ (re.opt  (str.to.re "\x4e41") ) (re.++ (re.opt  (str.to.re "\x4e42") ) (re.++ (re.opt  (str.to.re "\x4e43") ) (re.++ (re.opt  (str.to.re "\x4e44") ) (re.++ (re.opt  (str.to.re "\x4e45") ) (re.++ (re.opt  (str.to.re "\x4e46") ) (re.++ (re.opt  (str.to.re "\x4e47") ) (re.++ (re.opt  (str.to.re "\x4e48") ) (re.++ (re.*  (str.to.re "\x4e49") ) (re.++ (re.opt  (str.to.re "\x4e4a") ) (re.++ (re.opt  (str.to.re "\x4e4b") ) (re.++ (re.opt  (str.to.re "\x4e4c") ) (re.++ (re.opt  (str.to.re "\x4e4d") ) (re.++ (re.opt  (str.to.re "\x4e4e") ) (re.++ (re.opt  (str.to.re "\x4e4f") ) (re.++ (re.opt  (str.to.re "\x4e50") ) (re.++ (re.opt  (str.to.re "\x4e51") ) (re.++ (re.*  (str.to.re "\x4e52") ) (re.++ (re.*  (str.to.re "\x4e53") ) (re.++ (re.opt  (str.to.re "\x4e54") ) (re.++ (re.*  (str.to.re "\x4e55") ) (re.++ (re.*  (str.to.re "\x4e56") ) (re.++ (re.*  (str.to.re "\x4e57") ) (re.++ (re.opt  (str.to.re "\x4e58") ) (re.++ (re.opt  (str.to.re "\x4e59") ) (re.*  (str.to.re "\x4e5a") ))))))))))))))))))))))))))))))))))))))))))))))))))))))))))))))))))))))))))))))))))))))))))))
(assert (str.in.re x (re.++ (re.opt  (str.to.re "\x4e01") ) (re.++ (re.opt  (str.to.re "\x4e02") ) (re.++ (re.opt  (str.to.re "\x4e03") ) (re.++ (re.opt  (str.to.re "\x4e04") ) (re.++ (re.opt  (str.to.re "\x4e05") ) (re.++ (re.opt  (str.to.re "\x4e06") ) (re.++ (re.opt  (str.to.re "\x4e07") ) (re.++ (re.opt  (str.to.re "\x4e08") ) (re.++ (re.opt  (str.to.re "\x4e09") ) (re.++ (re.opt  (str.to.re "\x4e0a") ) (re.++ (re.opt  (str.to.re "\x4e0b") ) (re.++ (re.opt  (str.to.re "\x4e0c") ) (re.++ (re.opt  (str.to.re "\x4e0d") ) (re.++ (re.opt  (str.to.re "\x4e0e") ) (re.++ (re.opt  (str.to.re "\x4e0f") ) (re.++ (re.opt  (str.to.re "\x4e10") ) (re.++ (re.opt  (str.to.re "\x4e11") ) (re.++ (re.opt  (str.to.re "\x4e12") ) (re.++ (re.opt  (str.to.re "\x4e13") ) (re.++ (re.opt  (str.to.re "\x4e14") ) (re.++ (re.opt  (str.to.re "\x4e15") ) (re.++ (re.opt  (str.to.re "\x4e16") ) (re.++ (re.opt  (str.to.re "\x4e17") ) (re.++ (re.opt  (str.to.re "\x4e18") ) (re.++ (re.opt  (str.to.re "\x4e19") ) (re.++ (re.opt  (str.to.re "\x4e1a") ) (re.++ (re.opt  (str.to.re "\x4e1b") ) (re.++ (re.opt  (str.to.re "\x4e1c") ) (re.++ (re.opt  (str.to.re "\x4e1d") ) (re.++ (re.opt  (str.to.re "\x4e1e") ) (re.++ (re.opt  (str.to.re "\x4e1f") ) (re.++ (re.opt  (str.to.re "\x4e20") ) (re.++ (re.opt  (str.to.re "\x4e21") ) (re.++ (re.opt  (str.to.re "\x4e22") ) (re.++ (re.opt  (str.to.re "\x4e23") ) (re.++ (re.opt  (str.to.re "\x4e24") ) (re.++ (re.opt  (str.to.re "\x4e25") ) (re.++ (re.opt  (str.to.re "\x4e26") ) (re.++ (re.opt  (str.to.re "\x4e27") ) (re.++ (re.opt  (str.to.re "\x4e28") ) (re.++ (re.opt  (str.to.re "\x4e29") ) (re.++ (re.opt  (str.to.re "\x4e2a") ) (re.++ (re.opt  (str.to.re "\x4e2b") ) (re.++ (re.opt  (str.to.re "\x4e2c") ) (re.++ (re.opt  (str.to.re "\x4e2d") ) (re.++ (re.opt  (str.to.re "\x4e2e") ) (re.++ (re.opt  (str.to.re "\x4e2f") ) (re.++ (re.opt  (str.to.re "\x4e30") ) (re.++ (re.opt  (str.to.re "\x4e31") ) (re.++ (re.opt  (str.to.re "\x4e32") ) (re.++ (re.opt  (str.to.re "\x4e33") ) (re.++ (re.opt  (str.to.re "\x4e34") ) (re.++ (re.opt  (str.to.re "\x4e35") ) (re.++ (re.opt  (str.to.re "\x4e36") ) (re.++ (re.opt  (str.to.re "\x4e37") ) (re.++ (re.opt  (str.to.re "\x4e38") ) (re.++ (re.opt  (str.to.re "\x4e39") ) (re.++ (re.opt  (str.to.re "\x4e3a") ) (re.++ (re.opt  (str.to.re "\x4e3b") ) (re.++ (re.opt  (str.to.re "\x4e3c") ) (re.++ (re.opt  (str.to.re "\x4e3d") ) (re.++ (re.opt  (str.to.re "\x4e3e") ) (re.++ (re.opt  (str.to.re "\x4e3f") ) (re.++ (re.opt  (str.to.re "\x4e40") ) (re.++ (re.opt  (str.to.re "\x4e41") ) (re.++ (re.opt  (str.to.re "\x4e42") ) (re.++ (re.opt  (str.to.re "\x4e43") ) (re.++ (re.opt  (str.to.re "\x4e44") ) (re.++ (re.opt  (str.to.re "\x4e45") ) (re.++ (re.opt  (str.to.re "\x4e46") ) (re.++ (re.opt  (str.to.re "\x4e47") ) (re.++ (re.opt  (str.to.re "\x4e48") ) (re.++ (re.opt  (str.to.re "\x4e49") ) (re.++ (re.opt  (str.to.re "\x4e4a") ) (re.++ (re.opt  (str.to.re "\x4e4b") ) (re.++ (re.opt  (str.to.re "\x4e4c") ) (re.++ (re.opt  (str.to.re "\x4e4d") ) (re.++ (re.opt  (str.to.re "\x4e4e") ) (re.++ (re.opt  (str.to.re "\x4e4f") ) (re.++ (re.opt  (str.to.re "\x4e50") ) (re.++ (re.opt  (str.to.re "\x4e51") ) (re.++ (re.opt  (str.to.re "\x4e52") ) (re.++ (re.opt  (str.to.re "\x4e53") ) (re.++ (re.opt  (str.to.re "\x4e54") ) (re.++ (re.opt  (str.to.re "\x4e55") ) (re.++ (re.opt  (str.to.re "\x4e56") ) (re.++ (re.opt  (str.to.re "\x4e57") ) (re.++ (re.opt  (str.to.re "\x4e58") ) (re.++ (re.opt  (str.to.re "\x4e59") ) (re.++ (re.opt  (str.to.re "\x4e5a") ) (re.++ (re.opt  (str.to.re "\x4e5b") ) (re.++ (re.opt  (str.to.re "\x4e5c") ) (re.++ (re.opt  (str.to.re "\x4e5d") ) (re.++ (re.opt  (str.to.re "\x4e5e") ) (re.++ (re.opt  (str.to.re "\x4e5f") ) (re.++ (re.opt  (str.to.re "\x4e60") ) (re.++ (re.opt  (str.to.re "\x4e61") ) (re.++ (re.opt  (str.to.re "\x4e62") ) (re.++ (re.opt  (str.to.re "\x4e63") ) (re.++ (re.opt  (str.to.re "\x4e64") ) (re.++ (re.opt  (str.to.re "\x4e65") ) (re.++ (re.opt  (str.to.re "\x4e66") ) (re.++ (re.opt  (str.to.re "\x4e67") ) (re.++ (re.opt  (str.to.re "\x4e68") ) (re.++ (re.opt  (str.to.re "\x4e69") ) (re.++ (re.opt  (str.to.re "\x4e6a") ) (re.++ (re.opt  (str.to.re "\x4e6b") ) (re.++ (re.opt  (str.to.re "\x4e6c") ) (re.++ (re.opt  (str.to.re "\x4e6d") ) (re.++ (re.opt  (str.to.re "\x4e6e") ) (re.++ (re.opt  (str.to.re "\x4e6f") ) (re.++ (re.opt  (str.to.re "\x4e70") ) (re.++ (re.opt  (str.to.re "\x4e71") ) (re.++ (re.opt  (str.to.re "\x4e72") ) (re.++ (re.opt  (str.to.re "\x4e73") ) (re.++ (re.opt  (str.to.re "\x4e74") ) (re.++ (re.opt  (str.to.re "\x4e75") ) (re.++ (re.opt  (str.to.re "\x4e76") ) (re.++ (re.opt  (str.to.re "\x4e77") ) (re.++ (re.opt  (str.to.re "\x4e78") ) (re.++ (re.opt  (str.to.re "\x4e79") ) (re.++ (re.opt  (str.to.re "\x4e7a") ) (re.++ (re.opt  (str.to.re "\x4e7b") ) (re.++ (re.opt  (str.to.re "\x4e7c") ) (re.++ (re.*  (str.to.re "\x4e7d") ) (re.++ (re.*  (str.to.re "\x4e7e") ) (re.++ (re.opt  (str.to.re "\x4e7f") ) (re.++ (re.opt  (str.to.re "\x4e80") ) (re.++ (re.opt  (str.to.re "\x4e81") ) (re.++ (re.opt  (str.to.re "\x4e82") ) (re.++ (re.*  (str.to.re "\x4e83") ) (re.*  (str.to.re "\x4e84") ))))))))))))))))))))))))))))))))))))))))))))))))))))))))))))))))))))))))))))))))))))))))))))))))))))))))))))))))))))))))))))))))))))))
(check-sat)
(get-model)